#######################################################
#CASTEP cell file: neb-calc_0-07.cell
#Created using the Atomic Simulation Environment (ASE)#
#######################################################

%BLOCK LATTICE_CART
 8.012711  0.000000  0.000000
 0.000000  8.498763  0.000000
 0.000000  0.000000 18.000000
%ENDBLOCK LATTICE_CART

%BLOCK POSITIONS_ABS
H  2.748634  3.563958  4.112609
H  3.478904  5.314209  4.025658
H  5.021725  4.766029  5.588499
H  1.235295  2.963982  3.864309
H  5.631273  3.454824  4.054290
H  1.553916  6.350246  4.076287
H  7.711410  4.924540  4.021354
H  5.618148  6.390177  4.060881
H  3.643610  7.739170  4.131089
H  1.660424  0.633807  4.107134
H  7.619034  7.740883  4.092261
H  5.598338  0.641127  4.128625
H  3.740751  2.004829  4.167087
H  7.528910  2.064680  4.084160
Fe  6.276517  4.922736  4.830649 SPIN=2.5 
Fe  0.114898  4.881097  7.010384 SPIN=2.5 
Fe  0.149355  6.324742  5.012605 SPIN=2.5 
Fe  6.171362  7.740956  5.026417 SPIN=2.5 
Fe  6.130851  6.294303  7.026275 SPIN=2.5 
Fe  0.114423  7.735265  7.023825 SPIN=2.5 
Fe  0.151187  0.650535  5.007779 SPIN=2.5 
Fe  6.141759  2.057823  5.032881 SPIN=2.5 
Fe  6.130661  0.645646  7.040595 SPIN=2.5 
Fe  0.120397  2.057515  7.018966 SPIN=2.5 
Fe  0.142655  3.479913  4.981827 SPIN=2.5 
Fe  6.133402  3.472258  7.033889 SPIN=2.5 
Fe  2.150577  4.933650  5.002862 SPIN=2.5 
Fe  4.049049  4.902995  7.108706 SPIN=2.5 
Fe  4.173815  6.366688  5.037726 SPIN=2.5 
Fe  2.153078  7.729979  5.023728 SPIN=2.5 
Fe  2.103264  6.316066  7.032136 SPIN=2.5 
Fe  4.126844  7.725501  7.057328 SPIN=2.5 
Fe  4.160942  0.619953  5.072769 SPIN=2.5 
Fe  2.160826  2.073826  4.965354 SPIN=2.5 
Fe  2.121664  0.644642  7.017114 SPIN=2.5 
Fe  4.120217  2.059712  7.044364 SPIN=2.5 
Fe  4.149246  3.488621  4.999629 SPIN=2.5 
Fe  2.107672  3.475136  7.017443 SPIN=2.5 
Fe  6.107643  4.879804  9.067764 SPIN=2.5 
Fe  0.109113  4.862937 11.059894 SPIN=2.5 
Fe  0.097712  6.293804  9.051547 SPIN=2.5 
Fe  6.111191  7.715057  9.063286 SPIN=2.5 
Fe  6.117748  6.275734 11.073333 SPIN=2.5 
Fe  0.108105  7.694090 11.059810 SPIN=2.5 
Fe  0.099244  0.631881  9.056115 SPIN=2.5 
Fe  6.110913  2.047563  9.064945 SPIN=2.5 
Fe  6.117812  0.613570 11.070720 SPIN=2.5 
Fe  0.108098  2.031787 11.059846 SPIN=2.5 
Fe  0.098289  3.467354  9.052099 SPIN=2.5 
Fe  6.117730  3.450194 11.073350 SPIN=2.5 
Fe  2.095239  4.880278  9.058984 SPIN=2.5 
Fe  4.112344  4.862972 11.074227 SPIN=2.5 
Fe  4.103566  6.300119  9.083539 SPIN=2.5 
Fe  2.100116  7.720877  9.059070 SPIN=2.5 
Fe  2.110206  6.278764 11.056393 SPIN=2.5 
Fe  4.113602  7.694545 11.068185 SPIN=2.5 
Fe  4.106528  0.634731  9.072330 SPIN=2.5 
Fe  2.099145  2.043028  9.052112 SPIN=2.5 
Fe  2.110364  0.613562 11.060384 SPIN=2.5 
Fe  4.113608  2.031340 11.068165 SPIN=2.5 
Fe  4.103107  3.461728  9.074864 SPIN=2.5 
Fe  2.110224  3.447170 11.056409 SPIN=2.5 
%ENDBLOCK POSITIONS_ABS

KPOINT_MP_GRID: 4 4 1
KPOINT_MP_OFFSET: 0.0 0.0 0.0
