#######################################################
#CASTEP cell file: neb-calc_0-02.cell
#Created using the Atomic Simulation Environment (ASE)#
#######################################################

%BLOCK LATTICE_CART
 8.012711  0.000000  0.000000
 0.000000  8.498763  0.000000
 0.000000  0.000000 18.000000
%ENDBLOCK LATTICE_CART

%BLOCK POSITIONS_ABS
H  2.907265  3.654644  4.010563
H  3.185286  5.777679  3.918501
H  4.691420  4.870381  4.630535
H  1.309645  3.366836  3.952034
H  5.667489  3.409693  4.123268
H  1.440030  6.345580  4.053171
H  7.633220  4.912221  4.109291
H  5.660236  6.414674  4.125813
H  3.683677  7.793684  4.142565
H  1.607489  0.656004  4.086459
H  7.600564  7.755319  4.119546
H  5.578743  0.657493  4.141699
H  3.732682  2.006457  4.154900
H  7.577673  2.062862  4.117891
Fe  6.187513  4.901077  4.988911 SPIN=2.5 
Fe  0.117482  4.888131  7.029242 SPIN=2.5 
Fe  0.114565  6.331700  5.040392 SPIN=2.5 
Fe  6.158258  7.772640  5.057394 SPIN=2.5 
Fe  6.127246  6.303615  7.041179 SPIN=2.5 
Fe  0.122526  7.732508  7.037642 SPIN=2.5 
Fe  0.151975  0.657203  5.029154 SPIN=2.5 
Fe  6.152299  2.044139  5.062393 SPIN=2.5 
Fe  6.134659  0.644150  7.062431 SPIN=2.5 
Fe  0.125573  2.062146  7.035597 SPIN=2.5 
Fe  0.111403  3.486276  5.028553 SPIN=2.5 
Fe  6.131001  3.481953  7.047222 SPIN=2.5 
Fe  2.136884  4.918047  4.944232 SPIN=2.5 
Fe  4.099163  4.896559  7.051249 SPIN=2.5 
Fe  4.153557  6.389840  5.028017 SPIN=2.5 
Fe  2.136181  7.738045  4.998020 SPIN=2.5 
Fe  2.115200  6.305750  7.013054 SPIN=2.5 
Fe  4.123655  7.729577  7.057316 SPIN=2.5 
Fe  4.149444  0.653628  5.092955 SPIN=2.5 
Fe  2.140430  2.099309  4.962624 SPIN=2.5 
Fe  2.123061  0.646178  7.012205 SPIN=2.5 
Fe  4.122325  2.064667  7.058348 SPIN=2.5 
Fe  4.153228  3.438339  5.040230 SPIN=2.5 
Fe  2.115975  3.485977  7.008941 SPIN=2.5 
Fe  6.111341  4.881531  9.067951 SPIN=2.5 
Fe  0.109114  4.862936 11.059889 SPIN=2.5 
Fe  0.102777  6.294757  9.060181 SPIN=2.5 
Fe  6.112605  7.712412  9.074790 SPIN=2.5 
Fe  6.117742  6.275733 11.073322 SPIN=2.5 
Fe  0.108103  7.694094 11.059795 SPIN=2.5 
Fe  0.105023  0.632623  9.064793 SPIN=2.5 
Fe  6.113095  2.050519  9.075755 SPIN=2.5 
Fe  6.117808  0.613570 11.070707 SPIN=2.5 
Fe  0.108097  2.031786 11.059839 SPIN=2.5 
Fe  0.103608  3.468871  9.061833 SPIN=2.5 
Fe  6.117725  3.450191 11.073344 SPIN=2.5 
Fe  2.102251  4.881357  9.050266 SPIN=2.5 
Fe  4.112346  4.862969 11.074208 SPIN=2.5 
Fe  4.106295  6.293294  9.071485 SPIN=2.5 
Fe  2.105914  7.717341  9.051692 SPIN=2.5 
Fe  2.110214  6.278758 11.056377 SPIN=2.5 
Fe  4.113602  7.694547 11.068167 SPIN=2.5 
Fe  4.108622  0.633191  9.078777 SPIN=2.5 
Fe  2.105966  2.045881  9.050403 SPIN=2.5 
Fe  2.110366  0.613567 11.060376 SPIN=2.5 
Fe  4.113610  2.031342 11.068154 SPIN=2.5 
Fe  4.106552  3.471554  9.072424 SPIN=2.5 
Fe  2.110232  3.447172 11.056392 SPIN=2.5 
%ENDBLOCK POSITIONS_ABS

KPOINT_MP_GRID: 4 4 1
KPOINT_MP_OFFSET: 0.0 0.0 0.0
