#######################################################
#CASTEP cell file: X.relaxed.atom-assignment.cell
#Created using the Atomic Simulation Environment (ASE)#
#######################################################

%BLOCK LATTICE_CART
 8.012711  0.000000  0.000000
 0.000000  8.498763  0.000000
 0.000000  0.000000 18.000000
%ENDBLOCK LATTICE_CART

%BLOCK POSITIONS_ABS
H  2.974987  3.695750  3.968127
H  3.066541  5.972590  3.884177
H  4.574369  4.905052  4.262136
H  1.342229  3.541042  3.993632
H  5.673263  3.404212  4.155969
H  1.392723  6.342918  4.043219
H  7.598867  4.906487  4.147647
H  5.670372  6.414332  4.156610
H  3.700861  7.814972  4.147768
H  1.584743  0.665861  4.077572
H  7.592270  7.761269  4.131436
H  5.570165  0.664727  4.147416
H  3.729196  2.009064  4.149922
H  7.598816  2.062734  4.132621
Fe  6.117870  4.894324  5.025615 SPIN=2.5
Fe  0.118532  4.891183  7.037159 SPIN=2.5
Fe  0.099343  6.334437  5.052153 SPIN=2.5
Fe  6.152029  7.785470  5.070451 SPIN=2.5
Fe  6.125812  6.307874  7.047627 SPIN=2.5
Fe  0.125977  7.731205  7.043616 SPIN=2.5
Fe  0.152311  0.660190  5.038375 SPIN=2.5
Fe  6.156380  2.039000  5.074706 SPIN=2.5
Fe  6.136362  0.643497  7.071857 SPIN=2.5
Fe  0.127815  2.064224  7.042701 SPIN=2.5
Fe  0.100526  3.489527  5.046135 SPIN=2.5
Fe  6.130133  3.486031  7.053035 SPIN=2.5
Fe  2.135640  4.914587  4.914882 SPIN=2.5
Fe  4.118619  4.894275  7.028426 SPIN=2.5
Fe  4.146799  6.377782  5.010633 SPIN=2.5
Fe  2.129258  7.740905  4.986632 SPIN=2.5
Fe  2.120539  6.301231  7.004322 SPIN=2.5
Fe  4.122248  7.731093  7.056985 SPIN=2.5
Fe  4.144374  0.668297  5.101547 SPIN=2.5
Fe  2.131687  2.112001  4.960636 SPIN=2.5
Fe  2.123699  0.646893  7.009968 SPIN=2.5
Fe  4.123122  2.066924  7.064121 SPIN=2.5
Fe  4.161080  3.445843  5.040275 SPIN=2.5
Fe  2.119678  3.490789  7.004823 SPIN=2.5
Fe  6.112954  4.882295  9.068020 SPIN=2.5
Fe  0.109116  4.862937 11.059884 SPIN=2.5
Fe  0.104963  6.295167  9.063911 SPIN=2.5
Fe  6.113197  7.711250  9.079785 SPIN=2.5
Fe  6.117742  6.275732 11.073318 SPIN=2.5
Fe  0.108102  7.694086 11.059801 SPIN=2.5
Fe  0.107531  0.632945  9.068549 SPIN=2.5
Fe  6.114032  2.051808  9.080430 SPIN=2.5
Fe  6.117809  0.613571 11.070707 SPIN=2.5
Fe  0.108097  2.031787 11.059833 SPIN=2.5
Fe  0.105903  3.469532  9.066030 SPIN=2.5
Fe  6.117726  3.450192 11.073342 SPIN=2.5
Fe  2.105282  4.881839  9.046426 SPIN=2.5
Fe  4.112345  4.862972 11.074196 SPIN=2.5
Fe  4.107468  6.290373  9.066235 SPIN=2.5
Fe  2.108448  7.715782  9.048471 SPIN=2.5
Fe  2.110219  6.278754 11.056354 SPIN=2.5
Fe  4.113605  7.694536 11.068164 SPIN=2.5
Fe  4.109541  0.632513  9.081553 SPIN=2.5
Fe  2.108939  2.047124  9.049610 SPIN=2.5
Fe  2.110367  0.613566 11.060365 SPIN=2.5
Fe  4.113609  2.031346 11.068143 SPIN=2.5
Fe  4.108037  3.475784  9.071355 SPIN=2.5
Fe  2.110236  3.447177 11.056370 SPIN=2.5
%ENDBLOCK POSITIONS_ABS

KPOINT_MP_GRID: 4 4 1
KPOINT_MP_OFFSET: 0.0 0.0 0.0
