#######################################################
#CASTEP cell file: neb-calc_0-09.cell
#Created using the Atomic Simulation Environment (ASE)#
#######################################################

%BLOCK LATTICE_CART
 8.012711  0.000000  0.000000
 0.000000  8.498763  0.000000
 0.000000  0.000000 18.000000
%ENDBLOCK LATTICE_CART

%BLOCK POSITIONS_ABS
H  2.680182  3.526278  4.157817
H  3.603557  5.116250  4.082931
H  5.204034  4.713948  5.930475
H  1.204129  2.790735  3.831927
H  5.615696  3.476526  4.030459
H  1.603925  6.351589  4.086661
H  7.741756  4.929485  3.985702
H  5.599485  6.378308  4.035690
H  3.626598  7.714786  4.126534
H  1.683176  0.624269  4.116159
H  7.626943  7.734369  4.080549
H  5.606689  0.634212  4.123061
H  3.744103  2.005635  4.173008
H  7.508239  2.066056  4.069600
Fe  6.252626  4.922756  4.808410 SPIN=2.5 
Fe  0.113738  4.878041  7.002002 SPIN=2.5 
Fe  0.163912  6.321048  5.000391 SPIN=2.5 
Fe  6.176744  7.726427  5.013082 SPIN=2.5 
Fe  6.131752  6.289682  7.019056 SPIN=2.5 
Fe  0.110893  7.736353  7.017767 SPIN=2.5 
Fe  0.150919  0.647679  4.998420 SPIN=2.5 
Fe  6.136942  2.064594  5.020249 SPIN=2.5 
Fe  6.128900  0.646355  7.031063 SPIN=2.5 
Fe  0.118161  2.055592  7.011639 SPIN=2.5 
Fe  0.157788  3.476338  4.959064 SPIN=2.5 
Fe  6.134278  3.468080  7.027989 SPIN=2.5 
Fe  2.162288  4.940804  5.024635 SPIN=2.5 
Fe  4.031790  4.905190  7.124473 SPIN=2.5 
Fe  4.184434  6.345634  5.043900 SPIN=2.5 
Fe  2.160570  7.726190  5.034819 SPIN=2.5 
Fe  2.098592  6.320209  7.040015 SPIN=2.5 
Fe  4.128347  7.723191  7.057022 SPIN=2.5 
Fe  4.165843  0.605684  5.063935 SPIN=2.5 
Fe  2.168556  2.064552  4.964828 SPIN=2.5 
Fe  2.121112  0.644045  7.019146 SPIN=2.5 
Fe  4.119474  2.058134  7.037963 SPIN=2.5 
Fe  4.163061  3.530209  4.997614 SPIN=2.5 
Fe  2.104608  3.470747  7.020669 SPIN=2.5 
Fe  6.106031  4.879048  9.067682 SPIN=2.5 
Fe  0.109114  4.862938 11.059889 SPIN=2.5 
Fe  0.095511  6.293384  9.047780 SPIN=2.5 
Fe  6.110554  7.716154  9.058260 SPIN=2.5 
Fe  6.117745  6.275734 11.073327 SPIN=2.5 
Fe  0.108103  7.694089 11.059806 SPIN=2.5 
Fe  0.096748  0.631553  9.052340 SPIN=2.5 
Fe  6.109963  2.046296  9.060245 SPIN=2.5 
Fe  6.117810  0.613570 11.070714 SPIN=2.5 
Fe  0.108098  2.031786 11.059840 SPIN=2.5 
Fe  0.095998  3.466700  9.047866 SPIN=2.5 
Fe  6.117728  3.450192 11.073347 SPIN=2.5 
Fe  2.092303  4.879802  9.062604 SPIN=2.5 
Fe  4.112344  4.862974 11.074212 SPIN=2.5 
Fe  4.102418  6.302964  9.088565 SPIN=2.5 
Fe  2.097641  7.722371  9.062205 SPIN=2.5 
Fe  2.110212  6.278759 11.056370 SPIN=2.5 
Fe  4.113603  7.694541 11.068175 SPIN=2.5 
Fe  4.105608  0.635422  9.069497 SPIN=2.5 
Fe  2.096228  2.041846  9.052780 SPIN=2.5 
Fe  2.110365  0.613564 11.060373 SPIN=2.5 
Fe  4.113608  2.031342 11.068154 SPIN=2.5 
Fe  4.101626  3.457569  9.075766 SPIN=2.5 
Fe  2.110230  3.447174 11.056387 SPIN=2.5 
%ENDBLOCK POSITIONS_ABS

KPOINT_MP_GRID: 4 4 1
KPOINT_MP_OFFSET: 0.0 0.0 0.0
