#######################################################
#CASTEP cell file: neb-calc_0-01.cell
#Created using the Atomic Simulation Environment (ASE)#
#######################################################

%BLOCK LATTICE_CART
 8.012711  0.000000  0.000000
 0.000000  8.498763  0.000000
 0.000000  0.000000 18.000000
%ENDBLOCK LATTICE_CART

%BLOCK POSITIONS_ABS
H  2.940593  3.674685  3.989505
H  3.126202  5.874375  3.901434
H  4.636908  4.885723  4.444270
H  1.325728  3.452745  3.972564
H  5.670809  3.406571  4.140153
H  1.416400  6.344309  4.048287
H  7.616086  4.909359  4.128360
H  5.665895  6.415142  4.141454
H  3.692222  7.804371  4.145184
H  1.596264  0.660888  4.082071
H  7.596499  7.758303  4.125415
H  5.574518  0.661075  4.144521
H  3.730983  2.007704  4.152507
H  7.588120  2.062780  4.125154
Fe  6.147870  4.897382  5.007850 SPIN=2.5 
Fe  0.117985  4.889636  7.033143 SPIN=2.5 
Fe  0.107015  6.333023  5.046233 SPIN=2.5 
Fe  6.155210  7.779000  5.063874 SPIN=2.5 
Fe  6.126536  6.305703  7.044352 SPIN=2.5 
Fe  0.124235  7.731887  7.040568 SPIN=2.5 
Fe  0.152141  0.658671  5.033706 SPIN=2.5 
Fe  6.154322  2.041586  5.068502 SPIN=2.5 
Fe  6.135497  0.643836  7.067079 SPIN=2.5 
Fe  0.126677  2.063169  7.039107 SPIN=2.5 
Fe  0.105854  3.487805  5.037359 SPIN=2.5 
Fe  6.130575  3.483975  7.050100 SPIN=2.5 
Fe  2.136310  4.916151  4.929904 SPIN=2.5 
Fe  4.108778  4.895421  7.039844 SPIN=2.5 
Fe  4.150863  6.383492  5.020662 SPIN=2.5 
Fe  2.132739  7.739561  4.992413 SPIN=2.5 
Fe  2.117823  6.303512  7.008761 SPIN=2.5 
Fe  4.122955  7.730340  7.057150 SPIN=2.5 
Fe  4.146952  0.660880  5.097208 SPIN=2.5 
Fe  2.136131  2.105534  4.961646 SPIN=2.5 
Fe  2.123376  0.646537  7.011101 SPIN=2.5 
Fe  4.122723  2.065788  7.061195 SPIN=2.5 
Fe  4.158484  3.443944  5.041280 SPIN=2.5 
Fe  2.117803  3.488354  7.006916 SPIN=2.5 
Fe  6.112137  4.881908  9.067988 SPIN=2.5 
Fe  0.109116  4.862937 11.059886 SPIN=2.5 
Fe  0.103863  6.294956  9.062017 SPIN=2.5 
Fe  6.112891  7.711846  9.077246 SPIN=2.5 
Fe  6.117742  6.275733 11.073320 SPIN=2.5 
Fe  0.108104  7.694081 11.059792 SPIN=2.5 
Fe  0.106260  0.632777  9.066645 SPIN=2.5 
Fe  6.113548  2.051154  9.078063 SPIN=2.5 
Fe  6.117808  0.613570 11.070707 SPIN=2.5 
Fe  0.108097  2.031787 11.059836 SPIN=2.5 
Fe  0.104747  3.469199  9.063901 SPIN=2.5 
Fe  6.117725  3.450191 11.073344 SPIN=2.5 
Fe  2.103747  4.881594  9.048371 SPIN=2.5 
Fe  4.112344  4.862970 11.074201 SPIN=2.5 
Fe  4.106873  6.291853  9.068896 SPIN=2.5 
Fe  2.107172  7.716584  9.050090 SPIN=2.5 
Fe  2.110216  6.278756 11.056366 SPIN=2.5 
Fe  4.113605  7.694535 11.068161 SPIN=2.5 
Fe  4.109075  0.632856  9.080142 SPIN=2.5 
Fe  2.107444  2.046494  9.050012 SPIN=2.5 
Fe  2.110366  0.613567 11.060371 SPIN=2.5 
Fe  4.113612  2.031343 11.068148 SPIN=2.5 
Fe  4.107284  3.473641  9.071897 SPIN=2.5 
Fe  2.110234  3.447174 11.056381 SPIN=2.5 
%ENDBLOCK POSITIONS_ABS

KPOINT_MP_GRID: 4 4 1
KPOINT_MP_OFFSET: 0.0 0.0 0.0
