#######################################################
#CASTEP cell file: neb-calc_0-04.cell
#Created using the Atomic Simulation Environment (ASE)#
#######################################################

%BLOCK LATTICE_CART
 8.012711  0.000000  0.000000
 0.000000  8.498763  0.000000
 0.000000  0.000000 18.000000
%ENDBLOCK LATTICE_CART

%BLOCK POSITIONS_ABS
H  2.843790  3.617609  4.050836
H  3.301286  5.591966  3.954860
H  4.796768  4.840964  5.021464
H  1.279397  3.204447  3.914551
H  5.655560  3.423472  4.091639
H  1.485520  6.347829  4.062344
H  7.666293  4.917353  4.072733
H  5.645016  6.407493  4.097229
H  3.667499  7.772613  4.137648
H  1.628659  0.646939  4.094748
H  7.608099  7.749649  4.108504
H  5.586675  0.650761  4.136395
H  3.735844  2.004652  4.159335
H  7.557913  2.063273  4.104260
Fe  6.263970  4.911148  4.930683 SPIN=2.5 
Fe  0.116518  4.885296  7.021833 SPIN=2.5 
Fe  0.128977  6.329244  5.029287 SPIN=2.5 
Fe  6.163767  7.760346  5.044976 SPIN=2.5 
Fe  6.128659  6.299735  7.035194 SPIN=2.5 
Fe  0.119310  7.733699  7.032112 SPIN=2.5 
Fe  0.151648  0.654482  5.020573 SPIN=2.5 
Fe  6.148094  2.049324  5.050624 SPIN=2.5 
Fe  6.133064  0.644746  7.053659 SPIN=2.5 
Fe  0.123492  2.060236  7.028950 SPIN=2.5 
Fe  0.123143  3.483630  5.010965 SPIN=2.5 
Fe  6.131824  3.478199  7.041696 SPIN=2.5 
Fe  2.139619  4.923213  4.969716 SPIN=2.5 
Fe  4.080139  4.898926  7.074295 SPIN=2.5 
Fe  4.158471  6.393766  5.033339 SPIN=2.5 
Fe  2.142860  7.735060  5.008448 SPIN=2.5 
Fe  2.110243  6.309999  7.020992 SPIN=2.5 
Fe  4.124872  7.728124  7.057506 SPIN=2.5 
Fe  4.154081  0.639822  5.084878 SPIN=2.5 
Fe  2.148799  2.088071  4.964234 SPIN=2.5 
Fe  2.122477  0.645527  7.014243 SPIN=2.5 
Fe  4.121465  2.062574  7.052894 SPIN=2.5 
Fe  4.141302  3.434192  5.025149 SPIN=2.5 
Fe  2.112499  3.481486  7.012629 SPIN=2.5 
Fe  6.109848  4.880825  9.067864 SPIN=2.5 
Fe  0.109112  4.862936 11.059893 SPIN=2.5 
Fe  0.100731  6.294376  9.056717 SPIN=2.5 
Fe  6.112028  7.713473  9.070162 SPIN=2.5 
Fe  6.117748  6.275733 11.073324 SPIN=2.5 
Fe  0.108103  7.694095 11.059803 SPIN=2.5 
Fe  0.102701  0.632322  9.061303 SPIN=2.5 
Fe  6.112214  2.049331  9.071398 SPIN=2.5 
Fe  6.117811  0.613573 11.070712 SPIN=2.5 
Fe  0.108096  2.031785 11.059844 SPIN=2.5 
Fe  0.101462  3.468248  9.057924 SPIN=2.5 
Fe  6.117726  3.450192 11.073343 SPIN=2.5 
Fe  2.099423  4.880913  9.053827 SPIN=2.5 
Fe  4.112347  4.862969 11.074217 SPIN=2.5 
Fe  4.105203  6.296044  9.076363 SPIN=2.5 
Fe  2.103574  7.718805  9.054697 SPIN=2.5 
Fe  2.110210  6.278762 11.056395 SPIN=2.5 
Fe  4.113603  7.694549 11.068178 SPIN=2.5 
Fe  4.107771  0.633805  9.076195 SPIN=2.5 
Fe  2.103209  2.044702  9.051125 SPIN=2.5 
Fe  2.110364  0.613566 11.060387 SPIN=2.5 
Fe  4.113610  2.031340 11.068162 SPIN=2.5 
Fe  4.105174  3.467589  9.073412 SPIN=2.5 
Fe  2.110229  3.447169 11.056409 SPIN=2.5 
%ENDBLOCK POSITIONS_ABS

KPOINT_MP_GRID: 4 4 1
KPOINT_MP_OFFSET: 0.0 0.0 0.0
