#######################################################
#CASTEP cell file: neb-calc_0-08.cell
#Created using the Atomic Simulation Environment (ASE)#
#######################################################

%BLOCK LATTICE_CART
 8.012711  0.000000  0.000000
 0.000000  8.498763  0.000000
 0.000000  0.000000 18.000000
%ENDBLOCK LATTICE_CART

%BLOCK POSITIONS_ABS
H  2.714672  3.545167  4.135016
H  3.541275  5.215991  4.053814
H  5.114288  4.738424  5.760701
H  1.219830  2.878218  3.847918
H  5.623284  3.465703  4.042498
H  1.578445  6.350921  4.081395
H  7.726257  4.927003  4.003777
H  5.609011  6.384233  4.048440
H  3.635195  7.727143  4.128835
H  1.671680  0.629072  4.111596
H  7.622944  7.737672  4.086464
H  5.602499  0.637702  4.125866
H  3.742459  2.005252  4.170035
H  7.518438  2.065335  4.076961
Fe  6.262471  4.923181  4.815723 SPIN=2.5 
Fe  0.114341  4.879597  7.006243 SPIN=2.5 
Fe  0.156531  6.322926  5.006560 SPIN=2.5 
Fe  6.174028  7.733863  5.019804 SPIN=2.5 
Fe  6.131433  6.292239  7.022871 SPIN=2.5 
Fe  0.112679  7.735811  7.020833 SPIN=2.5 
Fe  0.151053  0.649118  5.003156 SPIN=2.5 
Fe  6.139387  2.061090  5.026592 SPIN=2.5 
Fe  6.129792  0.645987  7.035887 SPIN=2.5 
Fe  0.119297  2.056557  7.015352 SPIN=2.5 
Fe  0.150086  3.478294  4.970652 SPIN=2.5 
Fe  6.133953  3.470040  7.031129 SPIN=2.5 
Fe  2.156152  4.937342  5.013744 SPIN=2.5 
Fe  4.039424  4.904268  7.117502 SPIN=2.5 
Fe  4.179337  6.355705  5.040761 SPIN=2.5 
Fe  2.156784  7.728112  5.029211 SPIN=2.5 
Fe  2.100933  6.318107  7.036027 SPIN=2.5 
Fe  4.127571  7.724408  7.057181 SPIN=2.5 
Fe  4.163376  0.612892  5.068403 SPIN=2.5 
Fe  2.164801  2.069172  4.965277 SPIN=2.5 
Fe  2.121389  0.644344  7.018121 SPIN=2.5 
Fe  4.119825  2.058873  7.041215 SPIN=2.5 
Fe  4.156757  3.511288  4.998085 SPIN=2.5 
Fe  2.106127  3.472953  7.019041 SPIN=2.5 
Fe  6.106845  4.879433  9.067729 SPIN=2.5 
Fe  0.109113  4.862939 11.059892 SPIN=2.5 
Fe  0.096620  6.293598  9.049688 SPIN=2.5 
Fe  6.110878  7.715598  9.060807 SPIN=2.5 
Fe  6.117747  6.275734 11.073332 SPIN=2.5 
Fe  0.108105  7.694090 11.059810 SPIN=2.5 
Fe  0.098011  0.631718  9.054251 SPIN=2.5 
Fe  6.110445  2.046932  9.062627 SPIN=2.5 
Fe  6.117811  0.613570 11.070718 SPIN=2.5 
Fe  0.108098  2.031786 11.059844 SPIN=2.5 
Fe  0.097158  3.467031  9.050009 SPIN=2.5 
Fe  6.117729  3.450193 11.073350 SPIN=2.5 
Fe  2.093775  4.880047  9.060783 SPIN=2.5 
Fe  4.112343  4.862975 11.074222 SPIN=2.5 
Fe  4.102997  6.301539  9.086046 SPIN=2.5 
Fe  2.098890  7.721613  9.060620 SPIN=2.5 
Fe  2.110208  6.278762 11.056383 SPIN=2.5 
Fe  4.113602  7.694544 11.068182 SPIN=2.5 
Fe  4.106072  0.635071  9.070933 SPIN=2.5 
Fe  2.097699  2.042442  9.052445 SPIN=2.5 
Fe  2.110364  0.613563 11.060379 SPIN=2.5 
Fe  4.113608  2.031340 11.068161 SPIN=2.5 
Fe  4.102369  3.459662  9.075331 SPIN=2.5 
Fe  2.110225  3.447172 11.056400 SPIN=2.5 
%ENDBLOCK POSITIONS_ABS

KPOINT_MP_GRID: 4 4 1
KPOINT_MP_OFFSET: 0.0 0.0 0.0
