#######################################################
#CASTEP cell file: neb-calc_0-03.cell
#Created using the Atomic Simulation Environment (ASE)#
#######################################################

%BLOCK LATTICE_CART
 8.012711  0.000000  0.000000
 0.000000  8.498763  0.000000
 0.000000  0.000000 18.000000
%ENDBLOCK LATTICE_CART

%BLOCK POSITIONS_ABS
H  2.875113  3.635698  4.030951
H  3.243466  5.683731  3.935987
H  4.742261  4.856573  4.823135
H  1.294231  3.284258  3.932691
H  5.662371  3.415273  4.106722
H  1.463062  6.346806  4.057833
H  7.649993  4.914852  4.090731
H  5.653173  6.412045  4.110856
H  3.675437  7.783117  4.140030
H  1.618256  0.651374  4.090674
H  7.604421  7.752444  4.113921
H  5.582785  0.654014  4.138996
H  3.734290  2.005397  4.157131
H  7.567620  2.063018  4.110946
Fe  6.229679  4.905883  4.963885 SPIN=2.5 
Fe  0.117001  4.886687  7.025495 SPIN=2.5 
Fe  0.121940  6.330462  5.034752 SPIN=2.5 
Fe  6.161108  7.766445  5.051104 SPIN=2.5 
Fe  6.127947  6.301639  7.038137 SPIN=2.5 
Fe  0.120893  7.733090  7.034832 SPIN=2.5 
Fe  0.151804  0.655806  5.024787 SPIN=2.5 
Fe  6.150150  2.046701  5.056444 SPIN=2.5 
Fe  6.133850  0.644453  7.057970 SPIN=2.5 
Fe  0.124514  2.061175  7.032222 SPIN=2.5 
Fe  0.117213  3.484905  5.019791 SPIN=2.5 
Fe  6.131408  3.480042  7.044422 SPIN=2.5 
Fe  2.137908  4.920396  4.957503 SPIN=2.5 
Fe  4.089700  4.897759  7.062644 SPIN=2.5 
Fe  4.155706  6.394100  5.031996 SPIN=2.5 
Fe  2.139532  7.736555  5.003348 SPIN=2.5 
Fe  2.112683  6.307904  7.017126 SPIN=2.5 
Fe  4.124253  7.728848  7.057439 SPIN=2.5 
Fe  4.151812  0.646495  5.088855 SPIN=2.5 
Fe  2.144749  2.093418  4.963502 SPIN=2.5 
Fe  2.122760  0.645843  7.013251 SPIN=2.5 
Fe  4.121863  2.063595  7.055597 SPIN=2.5 
Fe  4.146690  3.433344  5.034896 SPIN=2.5 
Fe  2.114206  3.483701  7.010847 SPIN=2.5 
Fe  6.110578  4.881171  9.067909 SPIN=2.5 
Fe  0.109113  4.862936 11.059892 SPIN=2.5 
Fe  0.101733  6.294559  9.058420 SPIN=2.5 
Fe  6.112312  7.712950  9.072435 SPIN=2.5 
Fe  6.117741  6.275733 11.073323 SPIN=2.5 
Fe  0.108103  7.694095 11.059799 SPIN=2.5 
Fe  0.103841  0.632470  9.063017 SPIN=2.5 
Fe  6.112647  2.049913  9.073539 SPIN=2.5 
Fe  6.117807  0.613574 11.070709 SPIN=2.5 
Fe  0.108096  2.031785 11.059842 SPIN=2.5 
Fe  0.102516  3.468547  9.059847 SPIN=2.5 
Fe  6.117723  3.450191 11.073343 SPIN=2.5 
Fe  2.100814  4.881130  9.052081 SPIN=2.5 
Fe  4.112346  4.862969 11.074213 SPIN=2.5 
Fe  4.105739  6.294679  9.073967 SPIN=2.5 
Fe  2.104723  7.718076  9.053225 SPIN=2.5 
Fe  2.110212  6.278760 11.056387 SPIN=2.5 
Fe  4.113603  7.694549 11.068173 SPIN=2.5 
Fe  4.108191  0.633504  9.077465 SPIN=2.5 
Fe  2.104566  2.045295  9.050774 SPIN=2.5 
Fe  2.110365  0.613567 11.060383 SPIN=2.5 
Fe  4.113610  2.031341 11.068159 SPIN=2.5 
Fe  4.105851  3.469554  9.072926 SPIN=2.5 
Fe  2.110230  3.447170 11.056402 SPIN=2.5 
%ENDBLOCK POSITIONS_ABS

KPOINT_MP_GRID: 4 4 1
KPOINT_MP_OFFSET: 0.0 0.0 0.0
