#######################################################
#CASTEP cell file: neb-calc_0-06.cell
#Created using the Atomic Simulation Environment (ASE)#
#######################################################

%BLOCK LATTICE_CART
 8.012711  0.000000  0.000000
 0.000000  8.498763  0.000000
 0.000000  0.000000 18.000000
%ENDBLOCK LATTICE_CART

%BLOCK POSITIONS_ABS
H  2.781576  3.582390  4.090957
H  3.417786  5.409955  3.999325
H  4.934944  4.794966  5.406976
H  1.250429  3.047125  3.880934
H  5.639522  3.443878  4.066168
H  1.530173  6.349526  4.071394
H  7.696775  4.922110  4.038554
H  5.627270  6.396112  4.073025
H  3.651772  7.751081  4.133290
H  1.649526  0.638361  4.102827
H  7.615253  7.743991  4.097876
H  5.594311  0.644444  4.131304
H  3.739035  2.004462  4.164248
H  7.538888  2.064112  4.091120
Fe  6.285574  4.920376  4.857568 SPIN=2.5 
Fe  0.115453  4.882568  7.014389 SPIN=2.5 
Fe  0.142419  6.326435  5.018430 SPIN=2.5 
Fe  6.168770  7.747894  5.032838 SPIN=2.5 
Fe  6.130135  6.296142  7.029397 SPIN=2.5 
Fe  0.116094  7.734743  7.026710 SPIN=2.5 
Fe  0.151319  0.651908  5.012230 SPIN=2.5 
Fe  6.144004  2.054798  5.039022 SPIN=2.5 
Fe  6.131497  0.645330  7.045135 SPIN=2.5 
Fe  0.121474  2.058448  7.022443 SPIN=2.5 
Fe  0.135664  3.481280  4.992329 SPIN=2.5 
Fe  6.132810  3.474410  7.036499 SPIN=2.5 
Fe  2.145861  4.929933  4.991925 SPIN=2.5 
Fe  4.059716  4.901562  7.097947 SPIN=2.5 
Fe  4.168005  6.378033  5.035239 SPIN=2.5 
Fe  2.149504  7.731762  5.018434 SPIN=2.5 
Fe  2.105615  6.314040  7.028347 SPIN=2.5 
Fe  4.126160  7.726452  7.057441 SPIN=2.5 
Fe  4.158591  0.626787  5.076985 SPIN=2.5 
Fe  2.156756  2.078520  4.965159 SPIN=2.5 
Fe  2.121935  0.644938  7.016134 SPIN=2.5 
Fe  4.120641  2.060625  7.047371 SPIN=2.5 
Fe  4.142659  3.464317  5.004573 SPIN=2.5 
Fe  2.109252  3.477296  7.015861 SPIN=2.5 
Fe  6.108409  4.880163  9.067791 SPIN=2.5 
Fe  0.109112  4.862937 11.059894 SPIN=2.5 
Fe  0.098757  6.294003  9.053341 SPIN=2.5 
Fe  6.111468  7.714517  9.065674 SPIN=2.5 
Fe  6.117749  6.275733 11.073331 SPIN=2.5 
Fe  0.108105  7.694091 11.059809 SPIN=2.5 
Fe  0.100435  0.632026  9.057916 SPIN=2.5 
Fe  6.111361  2.048177  9.067180 SPIN=2.5 
Fe  6.117813  0.613571 11.070719 SPIN=2.5 
Fe  0.108098  2.031787 11.059847 SPIN=2.5 
Fe  0.099383  3.467665  9.054118 SPIN=2.5 
Fe  6.117731  3.450195 11.073347 SPIN=2.5 
Fe  2.096677  4.880505  9.057221 SPIN=2.5 
Fe  4.112346  4.862971 11.074226 SPIN=2.5 
Fe  4.104134  6.298724  9.081075 SPIN=2.5 
Fe  2.101309  7.720163  9.057565 SPIN=2.5 
Fe  2.110207  6.278765 11.056398 SPIN=2.5 
Fe  4.113602  7.694545 11.068184 SPIN=2.5 
Fe  4.106968  0.634407  9.073674 SPIN=2.5 
Fe  2.100549  2.043602  9.051782 SPIN=2.5 
Fe  2.110364  0.613562 11.060387 SPIN=2.5 
Fe  4.113609  2.031340 11.068166 SPIN=2.5 
Fe  4.103827  3.463743  9.074375 SPIN=2.5 
Fe  2.110224  3.447169 11.056414 SPIN=2.5 
%ENDBLOCK POSITIONS_ABS

KPOINT_MP_GRID: 4 4 1
KPOINT_MP_OFFSET: 0.0 0.0 0.0
