#######################################################
#CASTEP cell file: neb-calc_0-05.cell
#Created using the Atomic Simulation Environment (ASE)#
#######################################################

%BLOCK LATTICE_CART
 8.012711  0.000000  0.000000
 0.000000  8.498763  0.000000
 0.000000  0.000000 18.000000
%ENDBLOCK LATTICE_CART

%BLOCK POSITIONS_ABS
H  2.813009  3.600107  4.070533
H  3.358887  5.501792  3.975742
H  4.859860  4.820780  5.217624
H  1.264997  3.126515  3.897522
H  5.647670  3.433279  4.078362
H  1.507583  6.348729  4.066791
H  7.681972  4.919740  4.055483
H  5.636192  6.401951  4.084904
H  3.659589  7.762091  4.135436
H  1.639139  0.642687  4.098739
H  7.611652  7.746889  4.103235
H  5.590461  0.647610  4.133868
H  3.737400  2.004344  4.161661
H  7.548467  2.063639  4.097751
Fe  6.282848  4.916281  4.892984 SPIN=2.5 
Fe  0.116000  4.883955  7.018180 SPIN=2.5 
Fe  0.135715  6.327941  5.023932 SPIN=2.5 
Fe  6.166276  7.754262  5.038967 SPIN=2.5 
Fe  6.129394  6.297900  7.032325 SPIN=2.5 
Fe  0.117686  7.734225  7.029446 SPIN=2.5 
Fe  0.151522  0.653211  5.016450 SPIN=2.5 
Fe  6.146095  2.052009  5.044889 SPIN=2.5 
Fe  6.132290  0.645034  7.049445 SPIN=2.5 
Fe  0.122491  2.059337  7.025739 SPIN=2.5 
Fe  0.129222  3.482466  5.001952 SPIN=2.5 
Fe  6.132280  3.476365  7.039072 SPIN=2.5 
Fe  2.142205  4.926415  4.981010 SPIN=2.5 
Fe  4.070223  4.900187  7.086180 SPIN=2.5 
Fe  4.162617  6.387916  5.033866 SPIN=2.5 
Fe  2.146121  7.733477  5.013398 SPIN=2.5 
Fe  2.107916  6.312056  7.024678 SPIN=2.5 
Fe  4.125542  7.727360  7.057506 SPIN=2.5 
Fe  4.156282  0.633353  5.080982 SPIN=2.5 
Fe  2.152757  2.083189  4.964784 SPIN=2.5 
Fe  2.122201  0.645229  7.015189 SPIN=2.5 
Fe  4.121060  2.061566  7.050190 SPIN=2.5 
Fe  4.139590  3.444622  5.013729 SPIN=2.5 
Fe  2.110851  3.479387  7.014280 SPIN=2.5 
Fe  6.109137  4.880488  9.067822 SPIN=2.5 
Fe  0.109112  4.862937 11.059894 SPIN=2.5 
Fe  0.099754  6.294192  9.055048 SPIN=2.5 
Fe  6.111751  7.713968  9.067942 SPIN=2.5 
Fe  6.117750  6.275732 11.073327 SPIN=2.5 
Fe  0.108104  7.694094 11.059806 SPIN=2.5 
Fe  0.101590  0.632176  9.059628 SPIN=2.5 
Fe  6.111791  2.048783  9.069309 SPIN=2.5 
Fe  6.117813  0.613572 11.070715 SPIN=2.5 
Fe  0.108097  2.031786 11.059846 SPIN=2.5 
Fe  0.100429  3.467959  9.056041 SPIN=2.5 
Fe  6.117730  3.450194 11.073344 SPIN=2.5 
Fe  2.098061  4.880703  9.055517 SPIN=2.5 
Fe  4.112347  4.862970 11.074222 SPIN=2.5 
Fe  4.104676  6.297359  9.078701 SPIN=2.5 
Fe  2.102450  7.719487  9.056122 SPIN=2.5 
Fe  2.110208  6.278764 11.056399 SPIN=2.5 
Fe  4.113603  7.694549 11.068182 SPIN=2.5 
Fe  4.107365  0.634099  9.074950 SPIN=2.5 
Fe  2.101891  2.044154  9.051457 SPIN=2.5 
Fe  2.110364  0.613564 11.060389 SPIN=2.5 
Fe  4.113610  2.031341 11.068164 SPIN=2.5 
Fe  4.104511  3.465701  9.073891 SPIN=2.5 
Fe  2.110226  3.447169 11.056414 SPIN=2.5 
%ENDBLOCK POSITIONS_ABS

KPOINT_MP_GRID: 4 4 1
KPOINT_MP_OFFSET: 0.0 0.0 0.0
