#######################################################
#CASTEP cell file: 7-H-1below.relaxed.atom-assignment.cell
#Created using the Atomic Simulation Environment (ASE)#
#######################################################

%BLOCK LATTICE_CART
 8.012711  0.000000  0.000000
 0.000000  8.498763  0.000000
 0.000000  0.000000 18.000000
%ENDBLOCK LATTICE_CART

%BLOCK POSITIONS_ABS
H  2.646031  3.507630  4.180556
H  3.665015  5.016569  4.111989
H  5.284007  4.691775  6.105980
H  1.188590  2.703113  3.816528
H  5.608464  3.486417  4.017991
H  1.628847  6.352280  4.091983
H  7.757797  4.931956  3.967396
H  5.590546  6.372555  4.022752
H  3.617921  7.702673  4.124229
H  1.694684  0.619512  4.120731
H  7.630926  7.731102  4.074631
H  5.611000  0.630747  4.120262
H  3.745626  2.005948  4.175940
H  7.498335  2.066864  4.062206
Fe  6.252771  4.922992  4.799716 SPIN=2.5
Fe  0.113020  4.876467  6.997720 SPIN=2.5
Fe  0.171295  6.319172  4.994258 SPIN=2.5
Fe  6.179473  7.719068  5.006407 SPIN=2.5
Fe  6.131658  6.286244  7.014793 SPIN=2.5
Fe  0.109083  7.736871  7.014689 SPIN=2.5
Fe  0.150796  0.646269  4.993662 SPIN=2.5
Fe  6.134505  2.068231  5.014001 SPIN=2.5
Fe  6.128002  0.646753  7.026220 SPIN=2.5
Fe  0.116998  2.054655  7.007896 SPIN=2.5
Fe  0.165555  3.474156  4.947416 SPIN=2.5
Fe  6.134032  3.466951  7.024181 SPIN=2.5
Fe  2.168607  4.943895  5.035515 SPIN=2.5
Fe  4.026873  4.905605  7.130239 SPIN=2.5
Fe  4.189209  6.336617  5.046979 SPIN=2.5
Fe  2.164351  7.724291  5.040431 SPIN=2.5
Fe  2.096291  6.322238  7.044026 SPIN=2.5
Fe  4.129160  7.721932  7.056869 SPIN=2.5
Fe  4.168337  0.598459  5.059461 SPIN=2.5
Fe  2.171990  2.060111  4.963956 SPIN=2.5
Fe  2.120835  0.643751  7.020168 SPIN=2.5
Fe  4.119193  2.057519  7.034686 SPIN=2.5
Fe  4.167265  3.545349  4.996536 SPIN=2.5
Fe  2.103132  3.468540  7.022304 SPIN=2.5
Fe  6.105205  4.878660  9.067625 SPIN=2.5
Fe  0.109116  4.862937 11.059884 SPIN=2.5
Fe  0.094393  6.293164  9.045856 SPIN=2.5
Fe  6.110225  7.716689  9.055688 SPIN=2.5
Fe  6.117742  6.275732 11.073318 SPIN=2.5
Fe  0.108102  7.694086 11.059801 SPIN=2.5
Fe  0.095480  0.631390  9.050420 SPIN=2.5
Fe  6.109478  2.045671  9.057839 SPIN=2.5
Fe  6.117809  0.613571 11.070707 SPIN=2.5
Fe  0.108097  2.031787 11.059833 SPIN=2.5
Fe  0.094832  3.466372  9.045709 SPIN=2.5
Fe  6.117726  3.450192 11.073342 SPIN=2.5
Fe  2.090852  4.879554  9.064410 SPIN=2.5
Fe  4.112345  4.862972 11.074196 SPIN=2.5
Fe  4.101852  6.304365  9.091046 SPIN=2.5
Fe  2.096394  7.723106  9.063791 SPIN=2.5
Fe  2.110219  6.278754 11.056354 SPIN=2.5
Fe  4.113605  7.694536 11.068164 SPIN=2.5
Fe  4.105145  0.635778  9.068052 SPIN=2.5
Fe  2.094759  2.041253  9.053111 SPIN=2.5
Fe  2.110367  0.613566 11.060365 SPIN=2.5
Fe  4.113609  2.031346 11.068143 SPIN=2.5
Fe  4.100900  3.455491  9.076159 SPIN=2.5
Fe  2.110236  3.447177 11.056370 SPIN=2.5
%ENDBLOCK POSITIONS_ABS



KPOINT_MP_GRID: 4 4 1
KPOINT_MP_OFFSET: 0.0 0.0 0.0
